10	5
0	4	1	4	2	3
1	1	6
2	1	10
3	1	5
4	1	8
5	2	7	11
6	1	11
7	1	11
8	1	11
9	1	11
10	1	11
11	0
0	0	0	0	0	0	0
1	6	4	0	0	0	0
2	5	0	0	0	3	0
3	4	5	0	0	0	0
4	1	1	0	4	2	0
5	3	0	5	3	5	3
6	4	2	1	4	5	0
7	8	3	2	2	4	4
8	10	1	4	0	0	0
9	2	0	3	5	0	5
10	4	0	0	0	0	2
11	0	0	0	0	0	0
6	6	5	6	5
